3	36	29	97	91	81	63	88	51	34	76	72	38	32	32	17	77	40	14	78
9	99	53	16	85	59	84	20	13	37	67	17	26	74	22	35	83	97	84	48
29	60	43	19	51	38	81	73	29	69	37	74	5	38	24	5	21	63	30	61
60	57	57	69	22	15	90	34	70	25	31	48	78	69	24	100	88	63	16	13
27	90	53	82	16	8	58	16	46	40	52	84	43	36	42	4	87	60	27	35
